106100
0,9,28,44,45,53,65,35,25,79,61,69,13,75,66,19,76,8,70,20,18,4,21,43,67,58,52,82,7,27,78,5,60,14,41,22,11,2,42,56,33,48,46,59,80,71,50,55,16,57,73,31,39,81,74,10,6,26,32,15,37,34,29,1,54,24,68,77,40,51,38,62,3,49,64,30,23,47,17,36,12,72,63,0